36
100
68	1
67	2
66	2
65	2
64	1
63	1
61	1
60	1
59	3
56	1
55	1
54	1
53	1
52	2
51	4
50	1
49	2
47	2
44	1
43	1
42	2
41	1
40	1
38	1
36	1
35	1
34	1
33	2
32	1
31	1
30	1
27	1
25	1
24	2
23	1
22	1
